50
21831

440 930
43 835
359 768
626 50
306 807
154 259
463 447
380 615
375 865
9 291
441 463
809 797
359 569
814 583
810 819
353 942
781 84
717 291
309 669
102 2
973 505
452 369
240 438
500 22
839 609
562 663
287 81
498 278
475 712
754 229
830 949
656 553
717 223
180 698
819 166
791 227
590 683
387 786
784 402
177 189
54 725
689 695
409 993
203 226
526 966
15 625
283 248
841 790
502 982
332 839
